p edge 24 63
e 1 5
e 1 8
e 1 18
e 1 23
e 1 24
e 2 4
e 2 6
e 2 15
e 2 17
e 2 18
e 2 21
e 3 4
e 3 7
e 3 17
e 3 18
e 3 22
e 4 7
e 4 11
e 4 16
e 4 17
e 4 23
e 5 10
e 5 12
e 5 15
e 5 17
e 5 21
e 5 23
e 6 8
e 6 10
e 6 19
e 7 10
e 7 12
e 7 21
e 7 24
e 8 15
e 8 17
e 9 10
e 10 12
e 10 13
e 10 22
e 11 16
e 11 17
e 12 14
e 13 15
e 13 19
e 13 20
e 13 22
e 14 17
e 14 18
e 14 20
e 14 21
e 14 22
e 15 23
e 15 24
e 18 19
e 18 20
e 19 22
e 19 23
e 20 23
e 20 24
e 21 22
e 21 24
e 22 24
